
Gurobi 11.0.3 (linux64) logging started Mon 18 Nov 2024 08:28:40 PM CST

Set parameter LogFile to value "/home/dlcole3/graph_abstraction/hierarchical_graphs/git_storage/CS1/HP_low_reserves/gurobi_logs/serial/logfile_ST8_1.log"

Gurobi 11.0.3 (linux64) logging started Mon 18 Nov 2024 08:29:35 PM CST

Set parameter LogFile to value "/home/dlcole3/graph_abstraction/hierarchical_graphs/git_storage/CS1/HP_low_reserves/gurobi_logs/serial/logfile_ST8_1.log"
Gurobi Optimizer version 11.0.3 build v11.0.3rc0 (linux64 - "Ubuntu 18.04.3 LTS")

CPU model: Intel(R) Xeon(R) CPU E5-2698 v4 @ 2.20GHz, instruction set [SSE2|AVX|AVX2]
Thread count: 40 physical cores, 80 logical processors, using up to 20 threads

Optimize a model with 29168 rows, 50688 columns and 136175 nonzeros
Model fingerprint: 0xdd238406
Variable types: 46944 continuous, 3744 integer (3744 binary)
Coefficient statistics:
  Matrix range     [6e-01, 2e+04]
  Objective range  [2e+00, 2e+04]
  Bounds range     [5e-02, 2e+05]
  RHS range        [8e-03, 7e+03]
Presolve removed 13521 rows and 38427 columns
Presolve time: 0.37s
Presolved: 15647 rows, 12261 columns, 65906 nonzeros
Variable types: 9243 continuous, 3018 integer (3018 binary)
Found heuristic solution: objective 177818.71191
Found heuristic solution: objective 169300.79499
Found heuristic solution: objective 151012.28487

Root relaxation: objective 4.337940e+04, 6844 iterations, 0.31 seconds (0.22 work units)

    Nodes    |    Current Node    |     Objective Bounds      |     Work
 Expl Unexpl |  Obj  Depth IntInf | Incumbent    BestBd   Gap | It/Node Time

     0     0 43379.4037    0   10 151012.285 43379.4037  71.3%     -    1s
H    0     0                    77698.850082 43379.4037  44.2%     -    1s
H    0     0                    44878.068093 43379.4037  3.34%     -    1s
     0     0 43387.5050    0   10 44878.0681 43387.5050  3.32%     -    1s
     0     0 43387.5050    0    4 44878.0681 43387.5050  3.32%     -    2s
     0     0 43396.2037    0    4 44878.0681 43396.2037  3.30%     -    2s
     0     2 43396.2037    0    4 44878.0681 43396.2037  3.30%     -    2s
H   42    41                    44802.035108 43481.9163  2.95%   8.6    3s
H   77    67                    44553.710978 43499.2849  2.37%   6.9    3s
H   88    76                    44553.710256 43499.2849  2.37%   7.5    3s
H   94    76                    44553.708888 43499.2849  2.37%   7.3    3s
H  118    83                    44517.869556 43499.2849  2.29%   6.9    3s
H  132    83                    44456.990976 43499.2849  2.15%   6.8    3s
H  132    83                    44452.375747 43499.2849  2.14%   6.8    3s
H  138    83                    44375.465487 43499.2849  1.97%   7.0    3s
*  268    78              13    44374.725052 43499.2849  1.97%   6.4    3s
H  314    74                    44374.675931 43499.2849  1.97%   6.4    3s

Explored 607 nodes (17149 simplex iterations) in 3.96 seconds (2.36 work units)
Thread count was 20 (of 80 available processors)

Solution count 10: 44374.7 44374.7 44374.7 ... 151012

Optimal solution found (tolerance 3.00e-03)
Best objective 4.437467593131e+04, best bound 4.437467593110e+04, gap 0.0000%

User-callback calls 2805, time in user-callback 0.00 sec
